2142088
49,35,67,37,44,15,81,60,14,3,13,94,38,77,22,51,16,25,93,18,64,89,27,58,42,97,45,33,24,50,39,28,78,56,46,0,8,32,31,62,30,68,74,54,34,66,57,87,79,98,63,26,1,4,84,2,88,52,5,40,17,55,9,61,95,76,71,47,69,73,59,41,96,43,7,92,12,19,20,29,48,90,82,6,91,10,53,70,21,36,80,65,72,83,23,11,85,86,75
